Ir O  H                                 
   1.00000000000000     
    12.7396001820000002    0.0000000000000000    0.0000000000000000
     0.0000000000000000    6.3994002339999998    0.0000000000000000
     0.0000000000000000    0.0000000000000000   34.0233993530000021
   Ir   O    H 
    32    68     4
Selective dynamics
Direct
  0.1251098917728939  0.4999999817170391  0.0360399026351814   F   F   F
  0.6251098846298149  0.4999999817170391  0.0360399026351814   F   F   F
  0.3751098882013579  0.4999999817170391  0.0360399026351814   F   F   F
  0.8751098810582718  0.4999999817170391  0.0360399026351814   F   F   F
  0.1250824183832293  0.0000000000000000  0.1300698955470452   F   F   F
  0.6250824112401503  0.0000000000000000  0.1300698955470452   F   F   F
  0.3750824148116862  0.0000000000000000  0.1300698955470452   F   F   F
  0.8750824076686072  0.0000000000000000  0.1300698955470452   F   F   F
  0.1251318704846298  0.4999999817170391  0.2244108509200657   T   T   T
  0.6251318633415508  0.4999999817170391  0.2244108509200657   T   T   T
  0.3751318669130868  0.4999999817170391  0.2244108509200657   T   T   T
  0.8751318597700077  0.4999999817170391  0.2244108509200657   T   T   T
  0.1252951409146519  0.0000000000000000  0.3191297814585567   T   T   T
  0.6252951337715729  0.0000000000000000  0.3191297814585567   T   T   T
  0.3752951373431088  0.0000000000000000  0.3191297814585567   T   T   T
  0.8752951302000298  0.0000000000000000  0.3191297814585567   T   T   T
  0.0001098935586654  0.0000000000000000  0.0360399026351814   F   F   F
  0.5001098864155864  0.0000000000000000  0.0360399026351814   F   F   F
  0.2501098899871295  0.0000000000000000  0.0360399026351814   F   F   F
  0.7501098828440433  0.0000000000000000  0.0360399026351814   F   F   F
  0.0000824201690008  0.4999999817170391  0.1300698955470452   F   F   F
  0.5000824130259218  0.4999999817170391  0.1300698955470452   F   F   F
  0.2500824165974578  0.4999999817170391  0.1300698955470452   F   F   F
  0.7500824094543788  0.4999999817170391  0.1300698955470452   F   F   F
  0.0002009482215612  0.0000000000000000  0.2245501668053151   T   T   T
  0.5002009410784822  0.0000000000000000  0.2245501668053151   T   T   T
  0.2502009446500253  0.0000000000000000  0.2245501668053151   T   T   T
  0.7502009375069392  0.0000000000000000  0.2245501668053151   T   T   T
  0.0005078652318389  0.4999999817170391  0.3188511496880579   T   T   T
  0.5005078580887599  0.4999999817170391  0.3188511496880579   T   T   T
  0.2505078616603029  0.4999999817170391  0.3188511496880579   T   T   T
  0.7505078545172168  0.4999999817170391  0.3188511496880579   T   T   T
  0.0000871298929468  0.4999999817170391  0.0720800991857331   F   F   F
  0.5000871227498607  0.4999999817170391  0.0720800991857331   F   F   F
  0.2500871263214037  0.4999999817170391  0.0720800991857331   F   F   F
  0.7500871191783247  0.4999999817170391  0.0720800991857331   F   F   F
  0.0000596565032751  0.0000000000000000  0.1661100920975898   F   F   F
  0.5000596493601961  0.0000000000000000  0.1661100920975898   F   F   F
  0.2500596529317392  0.0000000000000000  0.1661100920975898   F   F   F
  0.7500596457886530  0.0000000000000000  0.1661100920975898   F   F   F
  0.0000722157671262  0.4999999817170391  0.2603887374122351   T   T   T
  0.5000722086240401  0.4999999817170391  0.2603887374122351   T   T   T
  0.2500722121955832  0.4999999817170391  0.2603887374122351   T   T   T
  0.7500722050525042  0.4999999817170391  0.2603887374122351   T   T   T
  0.0003202612281186  0.0000000000000000  0.3536069360729286   T   T   T
  0.5003202540850324  0.0000000000000000  0.3536069360729286   T   T   T
  0.2503202576565755  0.0000000000000000  0.3536069360729286   T   T   T
  0.7503202505134965  0.0000000000000000  0.3536069360729286   T   T   T
  0.1251098917728939  0.1916195198238952  0.0360399026351814   F   F   F
  0.6251098846298149  0.1916195198238952  0.0360399026351814   F   F   F
  0.3751098882013579  0.1916195198238952  0.0360399026351814   F   F   F
  0.8751098810582718  0.1916195198238952  0.0360399026351814   F   F   F
  0.1250824183832293  0.6916195015409343  0.1300698955470452   F   F   F
  0.6250824112401503  0.6916195015409343  0.1300698955470452   F   F   F
  0.3750824148116862  0.6916195015409343  0.1300698955470452   F   F   F
  0.8750824076686072  0.6916195015409343  0.1300698955470452   F   F   F
  0.1251695482761761  0.1912569858495914  0.2241707220630076   T   T   T
  0.6251695411330900  0.1912569858495914  0.2241707220630076   T   T   T
  0.3751695447046330  0.1912569858495914  0.2241707220630076   T   T   T
  0.8751695375615540  0.1912569858495914  0.2241707220630076   T   T   T
  0.1252535383531566  0.6914694874825997  0.3180531694592688   T   T   T
  0.6252535312100704  0.6914694874825997  0.3180531694592688   T   T   T
  0.3752535347816135  0.6914694874825997  0.3180531694592688   T   T   T
  0.8752535276385345  0.6914694874825997  0.3180531694592688   T   T   T
  0.0001350120863606  0.4999999817170391  0.0000000000000000   F   F   F
  0.5001350049432816  0.4999999817170391  0.0000000000000000   F   F   F
  0.2501350085148246  0.4999999817170391  0.0000000000000000   F   F   F
  0.7501350013717385  0.4999999817170391  0.0000000000000000   F   F   F
  0.0001075386966960  0.0000000000000000  0.0940299929118638   F   F   F
  0.5001075315536170  0.0000000000000000  0.0940299929118638   F   F   F
  0.2501075351251529  0.0000000000000000  0.0940299929118638   F   F   F
  0.7501075279820739  0.0000000000000000  0.0940299929118638   F   F   F
  0.0000565166873159  0.4999999817170391  0.1884023972294457   T   T   T
  0.5000565095442369  0.4999999817170391  0.1884023972294457   T   T   T
  0.2500565131157728  0.4999999817170391  0.1884023972294457   T   T   T
  0.7500565059726938  0.4999999817170391  0.1884023972294457   T   T   T
  0.0003422399398474  0.0000000000000000  0.2823903602434399   T   T   T
  0.5003422327967684  0.0000000000000000  0.2823903602434399   T   T   T
  0.2503422363683114  0.0000000000000000  0.2823903602434399   T   T   T
  0.7503422292252253  0.0000000000000000  0.2823903602434399   T   T   T
  0.1251098917728939  0.8083804436101758  0.0360399026351814   F   F   F
  0.6251098846298149  0.8083804436101758  0.0360399026351814   F   F   F
  0.3751098882013579  0.8083804436101758  0.0360399026351814   F   F   F
  0.8751098810582718  0.8083804436101758  0.0360399026351814   F   F   F
  0.1250824183832293  0.3083804618931438  0.1300698955470452   F   F   F
  0.6250824112401503  0.3083804618931438  0.1300698955470452   F   F   F
  0.3750824148116862  0.3083804618931438  0.1300698955470452   F   F   F
  0.8750824076686072  0.3083804618931438  0.1300698955470452   F   F   F
  0.1251695482761761  0.8087429775844868  0.2241707220630076   T   T   T
  0.6251695411330900  0.8087429775844868  0.2241707220630076   T   T   T
  0.3751695447046330  0.8087429775844868  0.2241707220630076   T   T   T
  0.8751695375615540  0.8087429775844868  0.2241707220630076   T   T   T
  0.1252535383531566  0.3085304759514784  0.3180531694592688   T   T   T
  0.6252535312100704  0.3085304759514784  0.3180531694592688   T   T   T
  0.3752535347816135  0.3085304759514784  0.3180531694592688   T   T   T
  0.8752535276385345  0.3085304759514784  0.3180531694592688   T   T   T
  0.9936913104923377  0.4999999817170391  0.3758727888215105   T   T   T
  0.4936913176354167  0.4999999817170391  0.3758727888215105   T   T   T
  0.2436913212069598  0.4999999817170391  0.3758727888215105   T   T   T
  0.7436913140638808  0.4999999817170391  0.3758727888215105   T   T   T
  0.0648419093377157  0.4999999817170391  0.3870841905995164   T   T   T
  0.5648419021946367  0.4999999817170391  0.3870841905995164   T   T   T
  0.3148419057661727  0.4999999817170391  0.3870841905995164   T   T   T
  0.8148418986230936  0.4999999817170391  0.3870841905995164   T   T   T
 
  0.00000000E+00  0.00000000E+00  0.00000000E+00
  0.00000000E+00  0.00000000E+00  0.00000000E+00
  0.00000000E+00  0.00000000E+00  0.00000000E+00
  0.00000000E+00  0.00000000E+00  0.00000000E+00
  0.00000000E+00  0.00000000E+00  0.00000000E+00
  0.00000000E+00  0.00000000E+00  0.00000000E+00
  0.00000000E+00  0.00000000E+00  0.00000000E+00
  0.00000000E+00  0.00000000E+00  0.00000000E+00
  0.00000000E+00  0.00000000E+00  0.00000000E+00
  0.00000000E+00  0.00000000E+00  0.00000000E+00
  0.00000000E+00  0.00000000E+00  0.00000000E+00
  0.00000000E+00  0.00000000E+00  0.00000000E+00
  0.00000000E+00  0.00000000E+00  0.00000000E+00
  0.00000000E+00  0.00000000E+00  0.00000000E+00
  0.00000000E+00  0.00000000E+00  0.00000000E+00
  0.00000000E+00  0.00000000E+00  0.00000000E+00
  0.00000000E+00  0.00000000E+00  0.00000000E+00
  0.00000000E+00  0.00000000E+00  0.00000000E+00
  0.00000000E+00  0.00000000E+00  0.00000000E+00
  0.00000000E+00  0.00000000E+00  0.00000000E+00
  0.00000000E+00  0.00000000E+00  0.00000000E+00
  0.00000000E+00  0.00000000E+00  0.00000000E+00
  0.00000000E+00  0.00000000E+00  0.00000000E+00
  0.00000000E+00  0.00000000E+00  0.00000000E+00
  0.00000000E+00  0.00000000E+00  0.00000000E+00
  0.00000000E+00  0.00000000E+00  0.00000000E+00
  0.00000000E+00  0.00000000E+00  0.00000000E+00
  0.00000000E+00  0.00000000E+00  0.00000000E+00
  0.00000000E+00  0.00000000E+00  0.00000000E+00
  0.00000000E+00  0.00000000E+00  0.00000000E+00
  0.00000000E+00  0.00000000E+00  0.00000000E+00
  0.00000000E+00  0.00000000E+00  0.00000000E+00
  0.00000000E+00  0.00000000E+00  0.00000000E+00
  0.00000000E+00  0.00000000E+00  0.00000000E+00
  0.00000000E+00  0.00000000E+00  0.00000000E+00
  0.00000000E+00  0.00000000E+00  0.00000000E+00
  0.00000000E+00  0.00000000E+00  0.00000000E+00
  0.00000000E+00  0.00000000E+00  0.00000000E+00
  0.00000000E+00  0.00000000E+00  0.00000000E+00
  0.00000000E+00  0.00000000E+00  0.00000000E+00
  0.00000000E+00  0.00000000E+00  0.00000000E+00
  0.00000000E+00  0.00000000E+00  0.00000000E+00
  0.00000000E+00  0.00000000E+00  0.00000000E+00
  0.00000000E+00  0.00000000E+00  0.00000000E+00
  0.00000000E+00  0.00000000E+00  0.00000000E+00
  0.00000000E+00  0.00000000E+00  0.00000000E+00
  0.00000000E+00  0.00000000E+00  0.00000000E+00
  0.00000000E+00  0.00000000E+00  0.00000000E+00
  0.00000000E+00  0.00000000E+00  0.00000000E+00
  0.00000000E+00  0.00000000E+00  0.00000000E+00
  0.00000000E+00  0.00000000E+00  0.00000000E+00
  0.00000000E+00  0.00000000E+00  0.00000000E+00
  0.00000000E+00  0.00000000E+00  0.00000000E+00
  0.00000000E+00  0.00000000E+00  0.00000000E+00
  0.00000000E+00  0.00000000E+00  0.00000000E+00
  0.00000000E+00  0.00000000E+00  0.00000000E+00
  0.00000000E+00  0.00000000E+00  0.00000000E+00
  0.00000000E+00  0.00000000E+00  0.00000000E+00
  0.00000000E+00  0.00000000E+00  0.00000000E+00
  0.00000000E+00  0.00000000E+00  0.00000000E+00
  0.00000000E+00  0.00000000E+00  0.00000000E+00
  0.00000000E+00  0.00000000E+00  0.00000000E+00
  0.00000000E+00  0.00000000E+00  0.00000000E+00
  0.00000000E+00  0.00000000E+00  0.00000000E+00
  0.00000000E+00  0.00000000E+00  0.00000000E+00
  0.00000000E+00  0.00000000E+00  0.00000000E+00
  0.00000000E+00  0.00000000E+00  0.00000000E+00
  0.00000000E+00  0.00000000E+00  0.00000000E+00
  0.00000000E+00  0.00000000E+00  0.00000000E+00
  0.00000000E+00  0.00000000E+00  0.00000000E+00
  0.00000000E+00  0.00000000E+00  0.00000000E+00
  0.00000000E+00  0.00000000E+00  0.00000000E+00
  0.00000000E+00  0.00000000E+00  0.00000000E+00
  0.00000000E+00  0.00000000E+00  0.00000000E+00
  0.00000000E+00  0.00000000E+00  0.00000000E+00
  0.00000000E+00  0.00000000E+00  0.00000000E+00
  0.00000000E+00  0.00000000E+00  0.00000000E+00
  0.00000000E+00  0.00000000E+00  0.00000000E+00
  0.00000000E+00  0.00000000E+00  0.00000000E+00
  0.00000000E+00  0.00000000E+00  0.00000000E+00
  0.00000000E+00  0.00000000E+00  0.00000000E+00
  0.00000000E+00  0.00000000E+00  0.00000000E+00
  0.00000000E+00  0.00000000E+00  0.00000000E+00
  0.00000000E+00  0.00000000E+00  0.00000000E+00
  0.00000000E+00  0.00000000E+00  0.00000000E+00
  0.00000000E+00  0.00000000E+00  0.00000000E+00
  0.00000000E+00  0.00000000E+00  0.00000000E+00
  0.00000000E+00  0.00000000E+00  0.00000000E+00
  0.00000000E+00  0.00000000E+00  0.00000000E+00
  0.00000000E+00  0.00000000E+00  0.00000000E+00
  0.00000000E+00  0.00000000E+00  0.00000000E+00
  0.00000000E+00  0.00000000E+00  0.00000000E+00
  0.00000000E+00  0.00000000E+00  0.00000000E+00
  0.00000000E+00  0.00000000E+00  0.00000000E+00
  0.00000000E+00  0.00000000E+00  0.00000000E+00
  0.00000000E+00  0.00000000E+00  0.00000000E+00
  0.00000000E+00  0.00000000E+00  0.00000000E+00
  0.00000000E+00  0.00000000E+00  0.00000000E+00
  0.00000000E+00  0.00000000E+00  0.00000000E+00
  0.00000000E+00  0.00000000E+00  0.00000000E+00
  0.00000000E+00  0.00000000E+00  0.00000000E+00
  0.00000000E+00  0.00000000E+00  0.00000000E+00
  0.00000000E+00  0.00000000E+00  0.00000000E+00
  0.00000000E+00  0.00000000E+00  0.00000000E+00
